(set-info :smt-lib-version 2.6)
(set-logic QF_SLIA)
(set-info :source |
Generated by: Dmitry Blotsky1, Federico Mora, Murphy Berzish, Yunhui Zheng, Ifaz Kabir, Vijay Ganesh, Zhengyang Lu
Generated on: 2018-01-24
Generator: StringFuzz
Application: Evaluate string solvers
Target solver: Z3str3, CVC4, Z3str2, Norn
Publications: Blotsky, D., Mora, F., Berzish, M., Zheng, Y., Kabir, I., & Ganesh, V. (2018). Stringfuzz: A fuzzer for string solvers. In CAV 2018.
Description: new instance generated by StringFuzz, a modular string and regex fuzzer
|)
(set-info :license "https://creativecommons.org/licenses/by/4.0/")
(set-info :category "random")
(set-info :status unknown)

(declare-fun var0 () String)
(assert (str.in_re var0 (re.++ (re.+ (re.* (str.to_re "00"))) (re.++ (re.union (re.union (str.to_re "111") (str.to_re "2")) (re.* (str.to_re "33"))) (re.++ (re.union (re.union (str.to_re "444") (str.to_re "555")) (re.+ (str.to_re "666"))) (re.++ (re.union (re.union (str.to_re "7") (str.to_re "888")) (re.union (str.to_re "99") (str.to_re "aaa"))) (re.++ (re.* (re.union (str.to_re "b") (str.to_re "cc"))) (re.++ (re.union (re.+ (str.to_re "d")) (re.union (str.to_re "ee") (str.to_re "fff"))) (re.++ (re.* (re.* (str.to_re "g"))) (re.++ (re.* (re.* (str.to_re "h"))) (re.++ (re.* (re.union (str.to_re "ii") (str.to_re "jjj"))) (re.++ (re.union (re.union (str.to_re "kkk") (str.to_re "l")) (re.union (str.to_re "mm") (str.to_re "nnn"))) (re.+ (re.union (str.to_re "oo") (str.to_re "pp")))))))))))))))
(check-sat)
(exit)
